NAME: ClusterId_258 
COMMENT : (Gillet and Johnson) 
TYPE : CVRP 
DIMENSION: 3 
EDGE_WEIGHT_TYPE: EUC_2D 
CAPACITY: 500 
NODE_COORD_SECTION 
259 40 80 
176 31 85 
56 28 93 
48 25 91 
DEMAND_SECTION 
259 80
176 85
56 93
48 91
DEPOT_SECTION 
259
 -1
EOF